% plconverted_room_s10_a30_w5.lp
% #const maxexpans=0. Command: clingo --outf=1 room_s10_a30_w5.lp solver.lp > plconverted_room_s10_a30_w5.lp 1

% clingo version 5.6.2
% Reading from room_s10_a30_w5.lp ...
% Solving...
% Answer: 1
%ANSWER
plan(30,stay,0). plan(29,left,0). plan(28,left,0). plan(27,down,0). plan(26,down,0). plan(25,right,0). plan(24,stay,0). plan(23,stay,0). plan(22,up,0). plan(21,right,0). plan(20,right,0). plan(19,up,0). plan(18,down,0). plan(17,up,0). plan(16,left,0). plan(15,up,0). plan(14,down,0). plan(13,left,0). plan(12,right,0). plan(11,left,0). plan(10,stay,0). plan(9,stay,0). plan(8,left,0). plan(7,down,0). plan(6,stay,0). plan(5,right,0). plan(4,stay,0). plan(3,up,0). plan(2,stay,0). plan(1,right,0). plan(1,left,1). plan(2,left,1). plan(3,up,1). plan(4,left,1). plan(5,up,1). plan(6,left,1). plan(7,down,1). plan(8,left,1). plan(9,up,1). plan(10,right,1). plan(11,left,1). plan(12,right,1). plan(13,stay,1). plan(14,down,1). plan(15,right,1). plan(16,left,1). plan(17,up,1). plan(18,down,1). plan(19,down,1). plan(20,up,1). plan(21,up,1). plan(22,up,1). plan(23,down,1). plan(24,right,1). plan(25,right,1). plan(26,down,1). plan(27,left,1). plan(28,left,1). plan(29,up,1). plan(30,right,1). plan(30,up,2). plan(29,up,2). plan(28,left,2). plan(27,left,2). plan(26,up,2). plan(25,up,2). plan(24,up,2). plan(23,down,2). plan(22,up,2). plan(21,up,2). plan(20,stay,2). plan(19,stay,2). plan(18,down,2). plan(17,up,2). plan(16,left,2). plan(15,down,2). plan(14,left,2). plan(13,left,2). plan(12,up,2). plan(11,up,2). plan(10,right,2). plan(9,down,2). plan(8,left,2). plan(7,left,2). plan(6,left,2). plan(5,up,2). plan(4,left,2). plan(3,right,2). plan(2,stay,2). plan(1,left,2). plan(1,right,3). plan(2,left,3). plan(3,up,3). plan(4,up,3). plan(5,up,3). plan(6,left,3). plan(7,left,3). plan(8,down,3). plan(9,stay,3). plan(10,down,3). plan(11,up,3). plan(12,right,3). plan(13,down,3). plan(14,stay,3). plan(15,right,3). plan(16,left,3). plan(17,up,3). plan(18,left,3). plan(19,stay,3). plan(20,up,3). plan(21,up,3). plan(22,left,3). plan(23,down,3). plan(24,up,3). plan(25,right,3). plan(26,left,3). plan(27,left,3). plan(28,left,3). plan(29,left,3). plan(30,down,3). plan(30,down,4). plan(29,left,4). plan(28,left,4). plan(27,down,4). plan(26,stay,4). plan(25,up,4). plan(24,right,4). plan(23,down,4). plan(22,left,4). plan(21,up,4). plan(20,up,4). plan(19,left,4). plan(18,left,4). plan(17,stay,4). plan(16,left,4). plan(15,left,4). plan(14,down,4). plan(13,down,4). plan(12,right,4). plan(11,left,4). plan(10,down,4). plan(9,right,4). plan(8,down,4). plan(7,left,4). plan(6,left,4). plan(5,up,4). plan(4,up,4). plan(3,up,4). plan(2,up,4). plan(1,right,4). plan(1,up,5). plan(2,left,5). plan(3,up,5). plan(4,up,5). plan(5,up,5). plan(6,left,5). plan(7,left,5). plan(8,left,5). plan(9,left,5). plan(10,right,5). plan(11,left,5). plan(12,right,5). plan(13,down,5). plan(14,down,5). plan(15,left,5). plan(16,up,5). plan(17,left,5). plan(18,left,5). plan(19,left,5). plan(20,left,5). plan(21,up,5). plan(22,up,5). plan(23,left,5). plan(24,up,5). plan(25,left,5). plan(26,up,5). plan(27,down,5). plan(28,stay,5). plan(29,up,5). plan(30,left,5). plan(30,left,6). plan(29,up,6). plan(28,stay,6). plan(27,left,6). plan(26,up,6). plan(25,left,6). plan(24,down,6). plan(23,left,6). plan(22,left,6). plan(21,up,6). plan(20,right,6). plan(19,down,6). plan(18,up,6). plan(17,up,6). plan(16,up,6). plan(15,left,6). plan(14,stay,6). plan(13,down,6). plan(12,up,6). plan(11,left,6). plan(10,left,6). plan(9,stay,6). plan(8,left,6). plan(7,up,6). plan(6,stay,6). plan(5,right,6). plan(4,left,6). plan(3,left,6). plan(2,up,6). plan(1,stay,6). plan(1,right,7). plan(2,up,7). plan(3,up,7). plan(4,left,7). plan(5,right,7). plan(6,left,7). plan(7,up,7). plan(8,up,7). plan(9,down,7). plan(10,stay,7). plan(11,stay,7). plan(12,left,7). plan(13,left,7). plan(14,down,7). plan(15,left,7). plan(16,right,7). plan(17,up,7). plan(18,up,7). plan(19,stay,7). plan(20,left,7). plan(21,left,7). plan(22,up,7). plan(23,left,7). plan(24,up,7). plan(25,right,7). plan(26,up,7). plan(27,left,7). plan(28,stay,7). plan(29,left,7). plan(30,right,7). plan(30,right,8). plan(29,left,8). plan(28,stay,8). plan(27,left,8). plan(26,left,8). plan(25,right,8). plan(24,stay,8). plan(23,left,8). plan(22,up,8). plan(21,up,8). plan(20,right,8). plan(19,right,8). plan(18,up,8). plan(17,left,8). plan(16,left,8). plan(15,left,8). plan(14,down,8). plan(13,left,8). plan(12,down,8). plan(11,up,8). plan(10,stay,8). plan(9,right,8). plan(8,up,8). plan(7,up,8). plan(6,left,8). plan(5,right,8). plan(4,left,8). plan(3,up,8). plan(2,up,8). plan(1,stay,8). plan(1,right,9). plan(2,up,9). plan(3,up,9). plan(4,left,9). plan(5,up,9). plan(6,stay,9). plan(7,up,9). plan(8,up,9). plan(9,right,9). plan(10,left,9). plan(11,up,9). plan(12,left,9). plan(13,left,9). plan(14,up,9). plan(15,left,9). plan(16,left,9). plan(17,stay,9). plan(18,stay,9). plan(19,left,9). plan(20,down,9). plan(21,up,9). plan(22,left,9). plan(23,stay,9). plan(24,down,9). plan(25,down,9). plan(26,left,9). plan(27,up,9). plan(28,left,9). plan(29,left,9). plan(30,right,9). plan(30,down,10). plan(29,left,10). plan(28,down,10). plan(27,up,10). plan(26,left,10). plan(25,down,10). plan(24,right,10). plan(23,left,10). plan(22,left,10). plan(21,right,10). plan(20,down,10). plan(19,stay,10). plan(18,left,10). plan(17,up,10). plan(16,stay,10). plan(15,left,10). plan(14,right,10). plan(13,left,10). plan(12,left,10). plan(11,down,10). plan(10,right,10). plan(9,up,10). plan(8,stay,10). plan(7,left,10). plan(6,left,10). plan(5,down,10). plan(4,left,10). plan(3,right,10). plan(2,right,10). plan(1,down,10). plan(1,down,11). plan(2,right,11). plan(3,right,11). plan(4,down,11). plan(5,down,11). plan(6,stay,11). plan(7,left,11). plan(8,left,11). plan(9,right,11). plan(10,stay,11). plan(11,right,11). plan(12,down,11). plan(13,stay,11). plan(14,down,11). plan(15,up,11). plan(16,left,11). plan(17,right,11). plan(18,down,11). plan(19,stay,11). plan(20,down,11). plan(21,left,11). plan(22,left,11). plan(23,right,11). plan(24,down,11). plan(25,right,11). plan(26,left,11). plan(27,left,11). plan(28,down,11). plan(29,up,11). plan(30,down,11). plan(30,right,12). plan(29,right,12). plan(28,right,12). plan(27,right,12). plan(26,left,12). plan(25,right,12). plan(24,down,12). plan(23,left,12). plan(22,left,12). plan(21,down,12). plan(20,down,12). plan(19,left,12). plan(18,stay,12). plan(17,right,12). plan(16,down,12). plan(15,up,12). plan(14,left,12). plan(13,left,12). plan(12,right,12). plan(11,up,12). plan(10,down,12). plan(9,right,12). plan(8,stay,12). plan(7,down,12). plan(6,up,12). plan(5,right,12). plan(4,down,12). plan(3,left,12). plan(2,right,12). plan(1,down,12). plan(1,right,13). plan(2,stay,13). plan(3,right,13). plan(4,right,13). plan(5,right,13). plan(6,right,13). plan(7,stay,13). plan(8,right,13). plan(9,down,13). plan(10,right,13). plan(11,stay,13). plan(12,right,13). plan(13,right,13). plan(14,right,13). plan(15,stay,13). plan(16,stay,13). plan(17,right,13). plan(18,down,13). plan(19,down,13). plan(20,down,13). plan(21,down,13). plan(22,left,13). plan(23,right,13). plan(24,stay,13). plan(25,up,13). plan(26,down,13). plan(27,down,13). plan(28,right,13). plan(29,up,13). plan(30,right,13). plan(30,right,14). plan(29,stay,14). plan(28,down,14). plan(27,stay,14). plan(26,down,14). plan(25,right,14). plan(24,down,14). plan(23,up,14). plan(22,down,14). plan(21,up,14). plan(20,down,14). plan(19,down,14). plan(18,left,14). plan(17,stay,14). plan(16,down,14). plan(15,left,14). plan(14,right,14). plan(13,stay,14). plan(12,right,14). plan(11,stay,14). plan(10,right,14). plan(9,down,14). plan(8,stay,14). plan(7,down,14). plan(6,stay,14). plan(5,down,14). plan(4,down,14). plan(3,right,14). plan(2,down,14). plan(1,right,14). plan(1,right,15). plan(2,right,15). plan(3,right,15). plan(4,down,15). plan(5,down,15). plan(6,right,15). plan(7,left,15). plan(8,down,15). plan(9,down,15). plan(10,right,15). plan(11,left,15). plan(12,up,15). plan(13,up,15). plan(14,right,15). plan(15,left,15). plan(16,down,15). plan(17,right,15). plan(18,down,15). plan(19,down,15). plan(20,right,15). plan(21,right,15). plan(22,down,15). plan(23,down,15). plan(24,right,15). plan(25,stay,15). plan(26,down,15). plan(27,right,15). plan(28,stay,15). plan(29,up,15). plan(30,right,15). plan(30,right,16). plan(29,left,16). plan(28,right,16). plan(27,up,16). plan(26,down,16). plan(25,down,16). plan(24,right,16). plan(23,left,16). plan(22,down,16). plan(21,right,16). plan(20,down,16). plan(19,stay,16). plan(18,down,16). plan(17,down,16). plan(16,down,16). plan(15,up,16). plan(14,right,16). plan(13,down,16). plan(12,stay,16). plan(11,up,16). plan(10,up,16). plan(9,right,16). plan(8,left,16). plan(7,down,16). plan(6,down,16). plan(5,right,16). plan(4,down,16). plan(3,down,16). plan(2,right,16). plan(1,right,16). plan(1,up,17). plan(2,up,17). plan(3,left,17). plan(4,down,17). plan(5,right,17). plan(6,left,17). plan(7,right,17). plan(8,left,17). plan(9,right,17). plan(10,right,17). plan(11,right,17). plan(12,up,17). plan(13,up,17). plan(14,right,17). plan(15,down,17). plan(16,down,17). plan(17,up,17). plan(18,down,17). plan(19,down,17). plan(20,right,17). plan(21,right,17). plan(22,down,17). plan(23,left,17). plan(24,right,17). plan(25,right,17). plan(26,down,17). plan(27,down,17). plan(28,down,17). plan(29,left,17). plan(30,stay,17). plan(30,up,18). plan(29,left,18). plan(28,down,18). plan(27,down,18). plan(26,down,18). plan(25,right,18). plan(24,right,18). plan(23,up,18). plan(22,down,18). plan(21,up,18). plan(20,down,18). plan(19,down,18). plan(18,right,18). plan(17,down,18). plan(16,down,18). plan(15,stay,18). plan(14,right,18). plan(13,left,18). plan(12,up,18). plan(11,stay,18). plan(10,stay,18). plan(9,right,18). plan(8,left,18). plan(7,down,18). plan(6,left,18). plan(5,right,18). plan(4,right,18). plan(3,left,18). plan(2,up,18). plan(1,stay,18). occurs(object(robot,2),action(move,(0,0)),0). occurs(object(robot,4),action(move,(0,0)),0). occurs(object(robot,6),action(move,(0,0)),0). occurs(object(robot,9),action(move,(0,0)),0). occurs(object(robot,10),action(move,(0,0)),0). occurs(object(robot,23),action(move,(0,0)),0). occurs(object(robot,24),action(move,(0,0)),0). occurs(object(robot,30),action(move,(0,0)),0). occurs(object(robot,13),action(move,(0,0)),1). occurs(object(robot,2),action(move,(0,0)),2). occurs(object(robot,19),action(move,(0,0)),2). occurs(object(robot,20),action(move,(0,0)),2). occurs(object(robot,9),action(move,(0,0)),3). occurs(object(robot,14),action(move,(0,0)),3). occurs(object(robot,19),action(move,(0,0)),3). occurs(object(robot,17),action(move,(0,0)),4). occurs(object(robot,26),action(move,(0,0)),4). occurs(object(robot,28),action(move,(0,0)),5). occurs(object(robot,1),action(move,(0,0)),6). occurs(object(robot,6),action(move,(0,0)),6). occurs(object(robot,9),action(move,(0,0)),6). occurs(object(robot,14),action(move,(0,0)),6). occurs(object(robot,28),action(move,(0,0)),6). occurs(object(robot,10),action(move,(0,0)),7). occurs(object(robot,11),action(move,(0,0)),7). occurs(object(robot,19),action(move,(0,0)),7). occurs(object(robot,28),action(move,(0,0)),7). occurs(object(robot,1),action(move,(0,0)),8). occurs(object(robot,10),action(move,(0,0)),8). occurs(object(robot,24),action(move,(0,0)),8). occurs(object(robot,28),action(move,(0,0)),8). occurs(object(robot,6),action(move,(0,0)),9). occurs(object(robot,17),action(move,(0,0)),9). occurs(object(robot,18),action(move,(0,0)),9). occurs(object(robot,23),action(move,(0,0)),9). occurs(object(robot,8),action(move,(0,0)),10). occurs(object(robot,16),action(move,(0,0)),10). occurs(object(robot,19),action(move,(0,0)),10). occurs(object(robot,6),action(move,(0,0)),11). occurs(object(robot,10),action(move,(0,0)),11). occurs(object(robot,13),action(move,(0,0)),11). occurs(object(robot,19),action(move,(0,0)),11). occurs(object(robot,8),action(move,(0,0)),12). occurs(object(robot,18),action(move,(0,0)),12). occurs(object(robot,2),action(move,(0,0)),13). occurs(object(robot,7),action(move,(0,0)),13). occurs(object(robot,11),action(move,(0,0)),13). occurs(object(robot,15),action(move,(0,0)),13). occurs(object(robot,16),action(move,(0,0)),13). occurs(object(robot,24),action(move,(0,0)),13). occurs(object(robot,6),action(move,(0,0)),14). occurs(object(robot,8),action(move,(0,0)),14). occurs(object(robot,11),action(move,(0,0)),14). occurs(object(robot,13),action(move,(0,0)),14). occurs(object(robot,17),action(move,(0,0)),14). occurs(object(robot,27),action(move,(0,0)),14). occurs(object(robot,29),action(move,(0,0)),14). occurs(object(robot,25),action(move,(0,0)),15). occurs(object(robot,28),action(move,(0,0)),15). occurs(object(robot,12),action(move,(0,0)),16). occurs(object(robot,19),action(move,(0,0)),16). occurs(object(robot,30),action(move,(0,0)),17). occurs(object(robot,1),action(move,(0,0)),18). occurs(object(robot,10),action(move,(0,0)),18). occurs(object(robot,11),action(move,(0,0)),18). occurs(object(robot,15),action(move,(0,0)),18). occurs(object(robot,7),action(move,(0,-1)),0). occurs(object(robot,14),action(move,(0,-1)),0). occurs(object(robot,18),action(move,(0,-1)),0). occurs(object(robot,26),action(move,(0,-1)),0). occurs(object(robot,27),action(move,(0,-1)),0). occurs(object(robot,7),action(move,(0,-1)),1). occurs(object(robot,14),action(move,(0,-1)),1). occurs(object(robot,18),action(move,(0,-1)),1). occurs(object(robot,19),action(move,(0,-1)),1). occurs(object(robot,23),action(move,(0,-1)),1). occurs(object(robot,26),action(move,(0,-1)),1). occurs(object(robot,9),action(move,(0,-1)),2). occurs(object(robot,15),action(move,(0,-1)),2). occurs(object(robot,18),action(move,(0,-1)),2). occurs(object(robot,23),action(move,(0,-1)),2). occurs(object(robot,8),action(move,(0,-1)),3). occurs(object(robot,10),action(move,(0,-1)),3). occurs(object(robot,13),action(move,(0,-1)),3). occurs(object(robot,23),action(move,(0,-1)),3). occurs(object(robot,30),action(move,(0,-1)),3). occurs(object(robot,8),action(move,(0,-1)),4). occurs(object(robot,10),action(move,(0,-1)),4). occurs(object(robot,13),action(move,(0,-1)),4). occurs(object(robot,14),action(move,(0,-1)),4). occurs(object(robot,23),action(move,(0,-1)),4). occurs(object(robot,27),action(move,(0,-1)),4). occurs(object(robot,30),action(move,(0,-1)),4). occurs(object(robot,13),action(move,(0,-1)),5). occurs(object(robot,14),action(move,(0,-1)),5). occurs(object(robot,27),action(move,(0,-1)),5). occurs(object(robot,13),action(move,(0,-1)),6). occurs(object(robot,19),action(move,(0,-1)),6). occurs(object(robot,24),action(move,(0,-1)),6). occurs(object(robot,9),action(move,(0,-1)),7). occurs(object(robot,14),action(move,(0,-1)),7). occurs(object(robot,12),action(move,(0,-1)),8). occurs(object(robot,14),action(move,(0,-1)),8). occurs(object(robot,20),action(move,(0,-1)),9). occurs(object(robot,24),action(move,(0,-1)),9). occurs(object(robot,25),action(move,(0,-1)),9). occurs(object(robot,1),action(move,(0,-1)),10). occurs(object(robot,5),action(move,(0,-1)),10). occurs(object(robot,11),action(move,(0,-1)),10). occurs(object(robot,20),action(move,(0,-1)),10). occurs(object(robot,25),action(move,(0,-1)),10). occurs(object(robot,28),action(move,(0,-1)),10). occurs(object(robot,30),action(move,(0,-1)),10). occurs(object(robot,1),action(move,(0,-1)),11). occurs(object(robot,4),action(move,(0,-1)),11). occurs(object(robot,5),action(move,(0,-1)),11). occurs(object(robot,12),action(move,(0,-1)),11). occurs(object(robot,14),action(move,(0,-1)),11). occurs(object(robot,18),action(move,(0,-1)),11). occurs(object(robot,20),action(move,(0,-1)),11). occurs(object(robot,24),action(move,(0,-1)),11). occurs(object(robot,28),action(move,(0,-1)),11). occurs(object(robot,30),action(move,(0,-1)),11). occurs(object(robot,1),action(move,(0,-1)),12). occurs(object(robot,4),action(move,(0,-1)),12). occurs(object(robot,7),action(move,(0,-1)),12). occurs(object(robot,10),action(move,(0,-1)),12). occurs(object(robot,16),action(move,(0,-1)),12). occurs(object(robot,20),action(move,(0,-1)),12). occurs(object(robot,21),action(move,(0,-1)),12). occurs(object(robot,24),action(move,(0,-1)),12). occurs(object(robot,9),action(move,(0,-1)),13). occurs(object(robot,18),action(move,(0,-1)),13). occurs(object(robot,19),action(move,(0,-1)),13). occurs(object(robot,20),action(move,(0,-1)),13). occurs(object(robot,21),action(move,(0,-1)),13). occurs(object(robot,26),action(move,(0,-1)),13). occurs(object(robot,27),action(move,(0,-1)),13). occurs(object(robot,2),action(move,(0,-1)),14). occurs(object(robot,4),action(move,(0,-1)),14). occurs(object(robot,5),action(move,(0,-1)),14). occurs(object(robot,7),action(move,(0,-1)),14). occurs(object(robot,9),action(move,(0,-1)),14). occurs(object(robot,16),action(move,(0,-1)),14). occurs(object(robot,19),action(move,(0,-1)),14). occurs(object(robot,20),action(move,(0,-1)),14). occurs(object(robot,22),action(move,(0,-1)),14). occurs(object(robot,24),action(move,(0,-1)),14). occurs(object(robot,26),action(move,(0,-1)),14). occurs(object(robot,28),action(move,(0,-1)),14). occurs(object(robot,4),action(move,(0,-1)),15). occurs(object(robot,5),action(move,(0,-1)),15). occurs(object(robot,8),action(move,(0,-1)),15). occurs(object(robot,9),action(move,(0,-1)),15). occurs(object(robot,16),action(move,(0,-1)),15). occurs(object(robot,18),action(move,(0,-1)),15). occurs(object(robot,19),action(move,(0,-1)),15). occurs(object(robot,22),action(move,(0,-1)),15). occurs(object(robot,23),action(move,(0,-1)),15). occurs(object(robot,26),action(move,(0,-1)),15). occurs(object(robot,3),action(move,(0,-1)),16). occurs(object(robot,4),action(move,(0,-1)),16). occurs(object(robot,6),action(move,(0,-1)),16). occurs(object(robot,7),action(move,(0,-1)),16). occurs(object(robot,13),action(move,(0,-1)),16). occurs(object(robot,16),action(move,(0,-1)),16). occurs(object(robot,17),action(move,(0,-1)),16). occurs(object(robot,18),action(move,(0,-1)),16). occurs(object(robot,20),action(move,(0,-1)),16). occurs(object(robot,22),action(move,(0,-1)),16). occurs(object(robot,25),action(move,(0,-1)),16). occurs(object(robot,26),action(move,(0,-1)),16). occurs(object(robot,4),action(move,(0,-1)),17). occurs(object(robot,15),action(move,(0,-1)),17). occurs(object(robot,16),action(move,(0,-1)),17). occurs(object(robot,18),action(move,(0,-1)),17). occurs(object(robot,19),action(move,(0,-1)),17). occurs(object(robot,22),action(move,(0,-1)),17). occurs(object(robot,26),action(move,(0,-1)),17). occurs(object(robot,27),action(move,(0,-1)),17). occurs(object(robot,28),action(move,(0,-1)),17). occurs(object(robot,7),action(move,(0,-1)),18). occurs(object(robot,16),action(move,(0,-1)),18). occurs(object(robot,17),action(move,(0,-1)),18). occurs(object(robot,19),action(move,(0,-1)),18). occurs(object(robot,20),action(move,(0,-1)),18). occurs(object(robot,22),action(move,(0,-1)),18). occurs(object(robot,26),action(move,(0,-1)),18). occurs(object(robot,27),action(move,(0,-1)),18). occurs(object(robot,28),action(move,(0,-1)),18). occurs(object(robot,8),action(move,(-1,0)),0). occurs(object(robot,11),action(move,(-1,0)),0). occurs(object(robot,13),action(move,(-1,0)),0). occurs(object(robot,16),action(move,(-1,0)),0). occurs(object(robot,28),action(move,(-1,0)),0). occurs(object(robot,29),action(move,(-1,0)),0). occurs(object(robot,1),action(move,(-1,0)),1). occurs(object(robot,2),action(move,(-1,0)),1). occurs(object(robot,4),action(move,(-1,0)),1). occurs(object(robot,6),action(move,(-1,0)),1). occurs(object(robot,8),action(move,(-1,0)),1). occurs(object(robot,11),action(move,(-1,0)),1). occurs(object(robot,16),action(move,(-1,0)),1). occurs(object(robot,27),action(move,(-1,0)),1). occurs(object(robot,28),action(move,(-1,0)),1). occurs(object(robot,1),action(move,(-1,0)),2). occurs(object(robot,4),action(move,(-1,0)),2). occurs(object(robot,6),action(move,(-1,0)),2). occurs(object(robot,7),action(move,(-1,0)),2). occurs(object(robot,8),action(move,(-1,0)),2). occurs(object(robot,13),action(move,(-1,0)),2). occurs(object(robot,14),action(move,(-1,0)),2). occurs(object(robot,16),action(move,(-1,0)),2). occurs(object(robot,27),action(move,(-1,0)),2). occurs(object(robot,28),action(move,(-1,0)),2). occurs(object(robot,2),action(move,(-1,0)),3). occurs(object(robot,6),action(move,(-1,0)),3). occurs(object(robot,7),action(move,(-1,0)),3). occurs(object(robot,16),action(move,(-1,0)),3). occurs(object(robot,18),action(move,(-1,0)),3). occurs(object(robot,22),action(move,(-1,0)),3). occurs(object(robot,26),action(move,(-1,0)),3). occurs(object(robot,27),action(move,(-1,0)),3). occurs(object(robot,28),action(move,(-1,0)),3). occurs(object(robot,29),action(move,(-1,0)),3). occurs(object(robot,6),action(move,(-1,0)),4). occurs(object(robot,7),action(move,(-1,0)),4). occurs(object(robot,11),action(move,(-1,0)),4). occurs(object(robot,15),action(move,(-1,0)),4). occurs(object(robot,16),action(move,(-1,0)),4). occurs(object(robot,18),action(move,(-1,0)),4). occurs(object(robot,19),action(move,(-1,0)),4). occurs(object(robot,22),action(move,(-1,0)),4). occurs(object(robot,28),action(move,(-1,0)),4). occurs(object(robot,29),action(move,(-1,0)),4). occurs(object(robot,2),action(move,(-1,0)),5). occurs(object(robot,6),action(move,(-1,0)),5). occurs(object(robot,7),action(move,(-1,0)),5). occurs(object(robot,8),action(move,(-1,0)),5). occurs(object(robot,9),action(move,(-1,0)),5). occurs(object(robot,11),action(move,(-1,0)),5). occurs(object(robot,15),action(move,(-1,0)),5). occurs(object(robot,17),action(move,(-1,0)),5). occurs(object(robot,18),action(move,(-1,0)),5). occurs(object(robot,19),action(move,(-1,0)),5). occurs(object(robot,20),action(move,(-1,0)),5). occurs(object(robot,23),action(move,(-1,0)),5). occurs(object(robot,25),action(move,(-1,0)),5). occurs(object(robot,30),action(move,(-1,0)),5). occurs(object(robot,3),action(move,(-1,0)),6). occurs(object(robot,4),action(move,(-1,0)),6). occurs(object(robot,8),action(move,(-1,0)),6). occurs(object(robot,10),action(move,(-1,0)),6). occurs(object(robot,11),action(move,(-1,0)),6). occurs(object(robot,15),action(move,(-1,0)),6). occurs(object(robot,22),action(move,(-1,0)),6). occurs(object(robot,23),action(move,(-1,0)),6). occurs(object(robot,25),action(move,(-1,0)),6). occurs(object(robot,27),action(move,(-1,0)),6). occurs(object(robot,30),action(move,(-1,0)),6). occurs(object(robot,4),action(move,(-1,0)),7). occurs(object(robot,6),action(move,(-1,0)),7). occurs(object(robot,12),action(move,(-1,0)),7). occurs(object(robot,13),action(move,(-1,0)),7). occurs(object(robot,15),action(move,(-1,0)),7). occurs(object(robot,20),action(move,(-1,0)),7). occurs(object(robot,21),action(move,(-1,0)),7). occurs(object(robot,23),action(move,(-1,0)),7). occurs(object(robot,27),action(move,(-1,0)),7). occurs(object(robot,29),action(move,(-1,0)),7). occurs(object(robot,4),action(move,(-1,0)),8). occurs(object(robot,6),action(move,(-1,0)),8). occurs(object(robot,13),action(move,(-1,0)),8). occurs(object(robot,15),action(move,(-1,0)),8). occurs(object(robot,16),action(move,(-1,0)),8). occurs(object(robot,17),action(move,(-1,0)),8). occurs(object(robot,23),action(move,(-1,0)),8). occurs(object(robot,26),action(move,(-1,0)),8). occurs(object(robot,27),action(move,(-1,0)),8). occurs(object(robot,29),action(move,(-1,0)),8). occurs(object(robot,4),action(move,(-1,0)),9). occurs(object(robot,10),action(move,(-1,0)),9). occurs(object(robot,12),action(move,(-1,0)),9). occurs(object(robot,13),action(move,(-1,0)),9). occurs(object(robot,15),action(move,(-1,0)),9). occurs(object(robot,16),action(move,(-1,0)),9). occurs(object(robot,19),action(move,(-1,0)),9). occurs(object(robot,22),action(move,(-1,0)),9). occurs(object(robot,26),action(move,(-1,0)),9). occurs(object(robot,28),action(move,(-1,0)),9). occurs(object(robot,29),action(move,(-1,0)),9). occurs(object(robot,4),action(move,(-1,0)),10). occurs(object(robot,6),action(move,(-1,0)),10). occurs(object(robot,7),action(move,(-1,0)),10). occurs(object(robot,12),action(move,(-1,0)),10). occurs(object(robot,13),action(move,(-1,0)),10). occurs(object(robot,15),action(move,(-1,0)),10). occurs(object(robot,18),action(move,(-1,0)),10). occurs(object(robot,22),action(move,(-1,0)),10). occurs(object(robot,23),action(move,(-1,0)),10). occurs(object(robot,26),action(move,(-1,0)),10). occurs(object(robot,29),action(move,(-1,0)),10). occurs(object(robot,7),action(move,(-1,0)),11). occurs(object(robot,8),action(move,(-1,0)),11). occurs(object(robot,16),action(move,(-1,0)),11). occurs(object(robot,21),action(move,(-1,0)),11). occurs(object(robot,22),action(move,(-1,0)),11). occurs(object(robot,26),action(move,(-1,0)),11). occurs(object(robot,27),action(move,(-1,0)),11). occurs(object(robot,3),action(move,(-1,0)),12). occurs(object(robot,13),action(move,(-1,0)),12). occurs(object(robot,14),action(move,(-1,0)),12). occurs(object(robot,19),action(move,(-1,0)),12). occurs(object(robot,22),action(move,(-1,0)),12). occurs(object(robot,23),action(move,(-1,0)),12). occurs(object(robot,26),action(move,(-1,0)),12). occurs(object(robot,22),action(move,(-1,0)),13). occurs(object(robot,15),action(move,(-1,0)),14). occurs(object(robot,18),action(move,(-1,0)),14). occurs(object(robot,7),action(move,(-1,0)),15). occurs(object(robot,11),action(move,(-1,0)),15). occurs(object(robot,15),action(move,(-1,0)),15). occurs(object(robot,8),action(move,(-1,0)),16). occurs(object(robot,23),action(move,(-1,0)),16). occurs(object(robot,29),action(move,(-1,0)),16). occurs(object(robot,3),action(move,(-1,0)),17). occurs(object(robot,6),action(move,(-1,0)),17). occurs(object(robot,8),action(move,(-1,0)),17). occurs(object(robot,23),action(move,(-1,0)),17). occurs(object(robot,29),action(move,(-1,0)),17). occurs(object(robot,3),action(move,(-1,0)),18). occurs(object(robot,6),action(move,(-1,0)),18). occurs(object(robot,8),action(move,(-1,0)),18). occurs(object(robot,13),action(move,(-1,0)),18). occurs(object(robot,29),action(move,(-1,0)),18). occurs(object(robot,3),action(move,(0,1)),0). occurs(object(robot,15),action(move,(0,1)),0). occurs(object(robot,17),action(move,(0,1)),0). occurs(object(robot,19),action(move,(0,1)),0). occurs(object(robot,22),action(move,(0,1)),0). occurs(object(robot,3),action(move,(0,1)),1). occurs(object(robot,5),action(move,(0,1)),1). occurs(object(robot,9),action(move,(0,1)),1). occurs(object(robot,17),action(move,(0,1)),1). occurs(object(robot,20),action(move,(0,1)),1). occurs(object(robot,21),action(move,(0,1)),1). occurs(object(robot,22),action(move,(0,1)),1). occurs(object(robot,29),action(move,(0,1)),1). occurs(object(robot,5),action(move,(0,1)),2). occurs(object(robot,11),action(move,(0,1)),2). occurs(object(robot,12),action(move,(0,1)),2). occurs(object(robot,17),action(move,(0,1)),2). occurs(object(robot,21),action(move,(0,1)),2). occurs(object(robot,22),action(move,(0,1)),2). occurs(object(robot,24),action(move,(0,1)),2). occurs(object(robot,25),action(move,(0,1)),2). occurs(object(robot,26),action(move,(0,1)),2). occurs(object(robot,29),action(move,(0,1)),2). occurs(object(robot,30),action(move,(0,1)),2). occurs(object(robot,3),action(move,(0,1)),3). occurs(object(robot,4),action(move,(0,1)),3). occurs(object(robot,5),action(move,(0,1)),3). occurs(object(robot,11),action(move,(0,1)),3). occurs(object(robot,17),action(move,(0,1)),3). occurs(object(robot,20),action(move,(0,1)),3). occurs(object(robot,21),action(move,(0,1)),3). occurs(object(robot,24),action(move,(0,1)),3). occurs(object(robot,2),action(move,(0,1)),4). occurs(object(robot,3),action(move,(0,1)),4). occurs(object(robot,4),action(move,(0,1)),4). occurs(object(robot,5),action(move,(0,1)),4). occurs(object(robot,20),action(move,(0,1)),4). occurs(object(robot,21),action(move,(0,1)),4). occurs(object(robot,25),action(move,(0,1)),4). occurs(object(robot,1),action(move,(0,1)),5). occurs(object(robot,3),action(move,(0,1)),5). occurs(object(robot,4),action(move,(0,1)),5). occurs(object(robot,5),action(move,(0,1)),5). occurs(object(robot,16),action(move,(0,1)),5). occurs(object(robot,21),action(move,(0,1)),5). occurs(object(robot,22),action(move,(0,1)),5). occurs(object(robot,24),action(move,(0,1)),5). occurs(object(robot,26),action(move,(0,1)),5). occurs(object(robot,29),action(move,(0,1)),5). occurs(object(robot,2),action(move,(0,1)),6). occurs(object(robot,7),action(move,(0,1)),6). occurs(object(robot,12),action(move,(0,1)),6). occurs(object(robot,16),action(move,(0,1)),6). occurs(object(robot,17),action(move,(0,1)),6). occurs(object(robot,18),action(move,(0,1)),6). occurs(object(robot,21),action(move,(0,1)),6). occurs(object(robot,26),action(move,(0,1)),6). occurs(object(robot,29),action(move,(0,1)),6). occurs(object(robot,2),action(move,(0,1)),7). occurs(object(robot,3),action(move,(0,1)),7). occurs(object(robot,7),action(move,(0,1)),7). occurs(object(robot,8),action(move,(0,1)),7). occurs(object(robot,17),action(move,(0,1)),7). occurs(object(robot,18),action(move,(0,1)),7). occurs(object(robot,22),action(move,(0,1)),7). occurs(object(robot,24),action(move,(0,1)),7). occurs(object(robot,26),action(move,(0,1)),7). occurs(object(robot,2),action(move,(0,1)),8). occurs(object(robot,3),action(move,(0,1)),8). occurs(object(robot,7),action(move,(0,1)),8). occurs(object(robot,8),action(move,(0,1)),8). occurs(object(robot,11),action(move,(0,1)),8). occurs(object(robot,18),action(move,(0,1)),8). occurs(object(robot,21),action(move,(0,1)),8). occurs(object(robot,22),action(move,(0,1)),8). occurs(object(robot,2),action(move,(0,1)),9). occurs(object(robot,3),action(move,(0,1)),9). occurs(object(robot,5),action(move,(0,1)),9). occurs(object(robot,7),action(move,(0,1)),9). occurs(object(robot,8),action(move,(0,1)),9). occurs(object(robot,11),action(move,(0,1)),9). occurs(object(robot,14),action(move,(0,1)),9). occurs(object(robot,21),action(move,(0,1)),9). occurs(object(robot,27),action(move,(0,1)),9). occurs(object(robot,9),action(move,(0,1)),10). occurs(object(robot,17),action(move,(0,1)),10). occurs(object(robot,27),action(move,(0,1)),10). occurs(object(robot,15),action(move,(0,1)),11). occurs(object(robot,29),action(move,(0,1)),11). occurs(object(robot,6),action(move,(0,1)),12). occurs(object(robot,11),action(move,(0,1)),12). occurs(object(robot,15),action(move,(0,1)),12). occurs(object(robot,25),action(move,(0,1)),13). occurs(object(robot,29),action(move,(0,1)),13). occurs(object(robot,21),action(move,(0,1)),14). occurs(object(robot,23),action(move,(0,1)),14). occurs(object(robot,12),action(move,(0,1)),15). occurs(object(robot,13),action(move,(0,1)),15). occurs(object(robot,29),action(move,(0,1)),15). occurs(object(robot,10),action(move,(0,1)),16). occurs(object(robot,11),action(move,(0,1)),16). occurs(object(robot,15),action(move,(0,1)),16). occurs(object(robot,27),action(move,(0,1)),16). occurs(object(robot,1),action(move,(0,1)),17). occurs(object(robot,2),action(move,(0,1)),17). occurs(object(robot,12),action(move,(0,1)),17). occurs(object(robot,13),action(move,(0,1)),17). occurs(object(robot,17),action(move,(0,1)),17). occurs(object(robot,2),action(move,(0,1)),18). occurs(object(robot,12),action(move,(0,1)),18). occurs(object(robot,21),action(move,(0,1)),18). occurs(object(robot,23),action(move,(0,1)),18). occurs(object(robot,30),action(move,(0,1)),18). occurs(object(robot,1),action(move,(1,0)),0). occurs(object(robot,5),action(move,(1,0)),0). occurs(object(robot,12),action(move,(1,0)),0). occurs(object(robot,20),action(move,(1,0)),0). occurs(object(robot,21),action(move,(1,0)),0). occurs(object(robot,25),action(move,(1,0)),0). occurs(object(robot,10),action(move,(1,0)),1). occurs(object(robot,12),action(move,(1,0)),1). occurs(object(robot,15),action(move,(1,0)),1). occurs(object(robot,24),action(move,(1,0)),1). occurs(object(robot,25),action(move,(1,0)),1). occurs(object(robot,30),action(move,(1,0)),1). occurs(object(robot,3),action(move,(1,0)),2). occurs(object(robot,10),action(move,(1,0)),2). occurs(object(robot,1),action(move,(1,0)),3). occurs(object(robot,12),action(move,(1,0)),3). occurs(object(robot,15),action(move,(1,0)),3). occurs(object(robot,25),action(move,(1,0)),3). occurs(object(robot,1),action(move,(1,0)),4). occurs(object(robot,9),action(move,(1,0)),4). occurs(object(robot,12),action(move,(1,0)),4). occurs(object(robot,24),action(move,(1,0)),4). occurs(object(robot,10),action(move,(1,0)),5). occurs(object(robot,12),action(move,(1,0)),5). occurs(object(robot,5),action(move,(1,0)),6). occurs(object(robot,20),action(move,(1,0)),6). occurs(object(robot,1),action(move,(1,0)),7). occurs(object(robot,5),action(move,(1,0)),7). occurs(object(robot,16),action(move,(1,0)),7). occurs(object(robot,25),action(move,(1,0)),7). occurs(object(robot,30),action(move,(1,0)),7). occurs(object(robot,5),action(move,(1,0)),8). occurs(object(robot,9),action(move,(1,0)),8). occurs(object(robot,19),action(move,(1,0)),8). occurs(object(robot,20),action(move,(1,0)),8). occurs(object(robot,25),action(move,(1,0)),8). occurs(object(robot,30),action(move,(1,0)),8). occurs(object(robot,1),action(move,(1,0)),9). occurs(object(robot,9),action(move,(1,0)),9). occurs(object(robot,30),action(move,(1,0)),9). occurs(object(robot,2),action(move,(1,0)),10). occurs(object(robot,3),action(move,(1,0)),10). occurs(object(robot,10),action(move,(1,0)),10). occurs(object(robot,14),action(move,(1,0)),10). occurs(object(robot,21),action(move,(1,0)),10). occurs(object(robot,24),action(move,(1,0)),10). occurs(object(robot,2),action(move,(1,0)),11). occurs(object(robot,3),action(move,(1,0)),11). occurs(object(robot,9),action(move,(1,0)),11). occurs(object(robot,11),action(move,(1,0)),11). occurs(object(robot,17),action(move,(1,0)),11). occurs(object(robot,23),action(move,(1,0)),11). occurs(object(robot,25),action(move,(1,0)),11). occurs(object(robot,2),action(move,(1,0)),12). occurs(object(robot,5),action(move,(1,0)),12). occurs(object(robot,9),action(move,(1,0)),12). occurs(object(robot,12),action(move,(1,0)),12). occurs(object(robot,17),action(move,(1,0)),12). occurs(object(robot,25),action(move,(1,0)),12). occurs(object(robot,27),action(move,(1,0)),12). occurs(object(robot,28),action(move,(1,0)),12). occurs(object(robot,29),action(move,(1,0)),12). occurs(object(robot,30),action(move,(1,0)),12). occurs(object(robot,1),action(move,(1,0)),13). occurs(object(robot,3),action(move,(1,0)),13). occurs(object(robot,4),action(move,(1,0)),13). occurs(object(robot,5),action(move,(1,0)),13). occurs(object(robot,6),action(move,(1,0)),13). occurs(object(robot,8),action(move,(1,0)),13). occurs(object(robot,10),action(move,(1,0)),13). occurs(object(robot,12),action(move,(1,0)),13). occurs(object(robot,13),action(move,(1,0)),13). occurs(object(robot,14),action(move,(1,0)),13). occurs(object(robot,17),action(move,(1,0)),13). occurs(object(robot,23),action(move,(1,0)),13). occurs(object(robot,28),action(move,(1,0)),13). occurs(object(robot,30),action(move,(1,0)),13). occurs(object(robot,1),action(move,(1,0)),14). occurs(object(robot,3),action(move,(1,0)),14). occurs(object(robot,10),action(move,(1,0)),14). occurs(object(robot,12),action(move,(1,0)),14). occurs(object(robot,14),action(move,(1,0)),14). occurs(object(robot,25),action(move,(1,0)),14). occurs(object(robot,30),action(move,(1,0)),14). occurs(object(robot,1),action(move,(1,0)),15). occurs(object(robot,2),action(move,(1,0)),15). occurs(object(robot,3),action(move,(1,0)),15). occurs(object(robot,6),action(move,(1,0)),15). occurs(object(robot,10),action(move,(1,0)),15). occurs(object(robot,14),action(move,(1,0)),15). occurs(object(robot,17),action(move,(1,0)),15). occurs(object(robot,20),action(move,(1,0)),15). occurs(object(robot,21),action(move,(1,0)),15). occurs(object(robot,24),action(move,(1,0)),15). occurs(object(robot,27),action(move,(1,0)),15). occurs(object(robot,30),action(move,(1,0)),15). occurs(object(robot,1),action(move,(1,0)),16). occurs(object(robot,2),action(move,(1,0)),16). occurs(object(robot,5),action(move,(1,0)),16). occurs(object(robot,9),action(move,(1,0)),16). occurs(object(robot,14),action(move,(1,0)),16). occurs(object(robot,21),action(move,(1,0)),16). occurs(object(robot,24),action(move,(1,0)),16). occurs(object(robot,28),action(move,(1,0)),16). occurs(object(robot,30),action(move,(1,0)),16). occurs(object(robot,5),action(move,(1,0)),17). occurs(object(robot,7),action(move,(1,0)),17). occurs(object(robot,9),action(move,(1,0)),17). occurs(object(robot,10),action(move,(1,0)),17). occurs(object(robot,11),action(move,(1,0)),17). occurs(object(robot,14),action(move,(1,0)),17). occurs(object(robot,20),action(move,(1,0)),17). occurs(object(robot,21),action(move,(1,0)),17). occurs(object(robot,24),action(move,(1,0)),17). occurs(object(robot,25),action(move,(1,0)),17). occurs(object(robot,4),action(move,(1,0)),18). occurs(object(robot,5),action(move,(1,0)),18). occurs(object(robot,9),action(move,(1,0)),18). occurs(object(robot,14),action(move,(1,0)),18). occurs(object(robot,18),action(move,(1,0)),18). occurs(object(robot,24),action(move,(1,0)),18). occurs(object(robot,25),action(move,(1,0)),18).
%COST 3
% 
% Models         : 1+
%   Optimum      : unknown
% Optimization   : 3
% Calls          : 1
% Time           : 22.803s (Solving: 19.03s 1st Model: 19.03s Unsat: 0.00s)
% CPU Time       : 22.719s
